proyfinal/src/viki/013/andrea/andrea-localstore/experimentInOfficeAgust.take6/worker_6/a0889b1d-98f0-468f-a337-d43719983216.als.cnf.out
Reading from standard input... Use '--help' for help.
============================[ Problem Statistics ]=============================
|                                                                             |
|  Number of variables:         87638                                         |
|  Number of clauses:          161767                                         |
|  Parse time:                   0.03 s                                       |
|                                                                             |
============================[ Search Statistics ]==============================
| Conflicts |          ORIGINAL         |          LEARNT          | Progress |
|           |    Vars  Clauses Literals |    Limit  Clauses Lit/Cl |          |
===============================================================================
|       100 |   65171   115275   287387 |    42267      100     28 | 25.636 % |
|       250 |   59124   115275   287387 |    46494      249     81 | 32.536 % |
|       475 |   59121    96538   241324 |    51143      471     68 | 32.540 % |
|       812 |   59117    96494   241234 |    56258      806     75 | 32.544 % |
|      1318 |   59081    96486   241218 |    61883     1308     91 | 32.585 % |
|      2077 |   59081    96354   240870 |    68072     2048     85 | 32.585 % |
|      3216 |   59078    96345   240852 |    74879     3180     76 | 32.589 % |
|      4924 |   58892    95658   239234 |    82367     4881     78 | 32.801 % |
|      7486 |   58662    94798   237209 |    90604     7418     83 | 33.063 % |
|     11330 |   58586    94547   236648 |    99664    11238     86 | 33.150 % |
===============================================================================
restarts              : 63
conflicts             : 16878          (6944 /sec)
decisions             : 92149          (0.00 % random) (37910 /sec)
propagations          : 26867120       (11053135 /sec)
conflict literals     : 1558636        (35.04 % deleted)
Memory used           : 41.65 MB
CPU time              : 2.43072 s

INDETERMINATE
